db/data/113498144156702096231722114236712962.z3.out
-------------------
2500.111285850
